p edge 680 679
e 1 365
e 1 662
e 1 312
e 2 652
e 2 533
e 3 523
e 3 400
e 4 329
e 4 623
e 4 342
e 5 655
e 6 672
e 6 110
e 7 77
e 7 489
e 7 361
e 8 427
e 8 73
e 9 542
e 9 568
e 10 593
e 10 575
e 10 115
e 11 115
e 12 305
e 12 118
e 13 26
e 14 282
e 15 251
e 16 510
e 16 96
e 17 229
e 18 143
e 19 105
e 20 369
e 20 115
e 21 599
e 21 590
e 22 347
e 22 603
e 23 559
e 24 90
e 25 229
e 25 676
e 26 423
e 26 151
e 26 48
e 27 605
e 28 44
e 28 547
e 28 678
e 28 86
e 29 340
e 29 119
e 30 498
e 30 399
e 31 35
e 31 96
e 32 433
e 33 34
e 33 214
e 33 440
e 33 339
e 36 224
e 37 559
e 37 379
e 38 239
e 39 518
e 40 392
e 40 272
e 40 112
e 41 570
e 41 374
e 41 367
e 42 617
e 43 630
e 43 316
e 45 120
e 45 471
e 46 620
e 46 261
e 46 447
e 47 150
e 47 678
e 48 251
e 49 94
e 49 113
e 50 575
e 51 204
e 52 101
e 52 543
e 52 674
e 52 187
e 52 267
e 53 258
e 53 95
e 54 666
e 55 559
e 56 481
e 56 670
e 57 430
e 58 213
e 58 235
e 59 541
e 59 553
e 59 521
e 60 246
e 60 223
e 60 594
e 61 429
e 61 411
e 61 169
e 62 226
e 63 486
e 63 540
e 63 322
e 64 426
e 64 212
e 65 460
e 66 290
e 66 407
e 66 220
e 66 425
e 67 604
e 68 224
e 68 217
e 69 285
e 70 235
e 70 561
e 70 241
e 71 376
e 71 191
e 71 358
e 71 251
e 72 149
e 72 641
e 72 442
e 72 339
e 73 443
e 73 527
e 74 190
e 74 624
e 75 324
e 75 626
e 75 467
e 76 103
e 76 551
e 78 503
e 78 115
e 78 153
e 79 164
e 80 451
e 80 293
e 81 127
e 81 375
e 81 88
e 82 158
e 82 239
e 83 521
e 83 554
e 83 142
e 84 576
e 84 430
e 85 433
e 86 659
e 87 665
e 87 291
e 88 498
e 89 349
e 90 285
e 91 160
e 92 221
e 93 345
e 94 278
e 95 99
e 95 650
e 96 667
e 96 241
e 97 464
e 97 100
e 98 105
e 100 105
e 100 675
e 101 484
e 101 506
e 102 390
e 103 577
e 104 161
e 104 390
e 106 633
e 106 363
e 107 608
e 107 138
e 108 368
e 109 338
e 109 641
e 110 612
e 110 436
e 111 164
e 111 392
e 112 348
e 112 611
e 113 157
e 114 353
e 115 321
e 116 619
e 117 271
e 118 550
e 119 609
e 119 651
e 119 395
e 121 550
e 122 128
e 123 414
e 123 584
e 124 403
e 124 254
e 125 256
e 125 468
e 126 388
e 128 656
e 128 308
e 129 378
e 129 132
e 130 566
e 131 629
e 131 568
e 131 479
e 131 638
e 132 676
e 133 301
e 134 342
e 134 653
e 135 406
e 135 661
e 136 452
e 136 601
e 136 358
e 137 468
e 137 476
e 138 271
e 139 439
e 139 473
e 140 644
e 141 634
e 142 275
e 142 155
e 143 248
e 143 253
e 144 460
e 144 433
e 145 371
e 146 592
e 147 242
e 147 272
e 148 197
e 151 204
e 152 566
e 152 250
e 152 672
e 153 559
e 154 234
e 155 237
e 156 297
e 157 355
e 157 393
e 157 220
e 159 499
e 159 634
e 159 243
e 160 567
e 160 279
e 162 326
e 162 549
e 162 292
e 162 449
e 163 457
e 163 487
e 164 283
e 164 274
e 165 285
e 166 357
e 166 269
e 166 453
e 167 177
e 167 243
e 167 182
e 168 196
e 168 474
e 169 389
e 170 382
e 170 415
e 170 479
e 171 512
e 171 417
e 172 465
e 173 651
e 174 485
e 174 675
e 175 374
e 176 193
e 176 547
e 178 380
e 179 661
e 179 631
e 180 364
e 181 673
e 181 531
e 182 423
e 183 333
e 183 268
e 183 595
e 184 636
e 184 341
e 185 215
e 186 274
e 187 473
e 188 433
e 188 286
e 189 664
e 191 555
e 192 651
e 194 251
e 195 463
e 195 494
e 195 537
e 195 591
e 195 261
e 197 492
e 197 658
e 197 431
e 198 640
e 198 409
e 199 389
e 200 671
e 200 394
e 201 277
e 202 654
e 202 373
e 203 656
e 204 353
e 204 231
e 205 228
e 205 472
e 206 396
e 206 320
e 207 571
e 208 225
e 209 352
e 209 650
e 210 585
e 210 322
e 211 333
e 212 431
e 215 324
e 216 615
e 216 367
e 216 294
e 216 441
e 217 388
e 217 336
e 217 466
e 218 232
e 218 672
e 219 493
e 219 551
e 219 453
e 219 524
e 220 448
e 221 411
e 222 275
e 223 304
e 225 273
e 225 436
e 225 500
e 225 280
e 226 424
e 226 618
e 226 500
e 227 581
e 228 482
e 229 234
e 230 323
e 231 405
e 231 318
e 233 512
e 234 313
e 235 435
e 236 420
e 236 603
e 237 393
e 238 406
e 239 659
e 240 470
e 241 293
e 241 279
e 243 511
e 244 444
e 244 286
e 245 586
e 245 642
e 245 282
e 246 315
e 247 372
e 247 581
e 249 459
e 249 485
e 250 410
e 251 487
e 252 575
e 253 564
e 253 593
e 254 266
e 254 653
e 255 491
e 255 422
e 255 274
e 256 474
e 256 632
e 256 571
e 257 552
e 258 300
e 258 501
e 259 270
e 260 599
e 262 439
e 263 598
e 264 409
e 265 371
e 266 461
e 267 389
e 268 584
e 268 647
e 269 624
e 270 331
e 270 513
e 271 617
e 271 518
e 272 384
e 272 525
e 272 587
e 272 519
e 272 595
e 274 311
e 276 522
e 277 506
e 279 344
e 280 447
e 281 643
e 282 451
e 284 434
e 284 653
e 284 534
e 285 389
e 285 432
e 286 337
e 286 643
e 286 360
e 287 433
e 288 611
e 289 614
e 289 620
e 291 528
e 292 603
e 293 527
e 294 312
e 295 395
e 296 391
e 297 611
e 298 480
e 299 542
e 301 323
e 301 446
e 302 567
e 303 413
e 303 568
e 304 538
e 306 343
e 306 361
e 306 400
e 307 606
e 307 680
e 308 589
e 308 520
e 309 583
e 309 416
e 310 557
e 310 627
e 313 359
e 314 657
e 315 371
e 316 374
e 317 520
e 317 419
e 318 668
e 319 349
e 320 409
e 322 354
e 322 639
e 322 680
e 324 536
e 324 469
e 325 610
e 325 454
e 327 465
e 328 344
e 328 554
e 330 663
e 330 477
e 332 368
e 332 501
e 334 520
e 335 419
e 335 466
e 335 346
e 336 679
e 337 409
e 339 418
e 339 556
e 340 550
e 341 422
e 344 635
e 345 399
e 345 415
e 346 389
e 347 408
e 348 490
e 349 655
e 350 520
e 351 624
e 352 616
e 354 445
e 356 383
e 359 472
e 360 657
e 362 553
e 363 471
e 363 574
e 364 544
e 366 614
e 370 372
e 373 442
e 377 546
e 379 602
e 379 597
e 380 487
e 381 563
e 383 398
e 383 449
e 385 541
e 386 622
e 387 434
e 389 660
e 390 590
e 390 489
e 391 553
e 394 507
e 395 591
e 397 666
e 399 431
e 400 430
e 401 530
e 402 463
e 404 677
e 404 607
e 406 588
e 410 522
e 410 507
e 411 516
e 412 568
e 413 488
e 413 657
e 414 563
e 416 562
e 417 462
e 417 574
e 417 636
e 418 425
e 421 480
e 421 479
e 425 467
e 426 478
e 428 647
e 430 552
e 432 680
e 434 475
e 434 529
e 434 619
e 437 517
e 437 562
e 438 565
e 438 575
e 439 659
e 441 627
e 441 594
e 442 465
e 445 611
e 446 498
e 447 648
e 447 498
e 449 557
e 450 553
e 453 477
e 453 664
e 454 504
e 454 628
e 455 585
e 456 591
e 457 562
e 458 485
e 460 496
e 461 487
e 466 526
e 469 592
e 470 596
e 470 637
e 474 502
e 476 531
e 476 544
e 478 556
e 482 637
e 483 662
e 485 524
e 489 546
e 493 514
e 495 550
e 497 534
e 497 642
e 498 513
e 499 535
e 501 518
e 505 564
e 508 668
e 509 554
e 515 548
e 515 544
e 517 628
e 519 600
e 522 644
e 524 621
e 528 680
e 530 570
e 532 678
e 533 552
e 536 579
e 539 556
e 542 605
e 544 573
e 545 599
e 547 638
e 550 646
e 552 560
e 558 610
e 560 618
e 565 625
e 566 597
e 567 613
e 569 609
e 571 675
e 572 635
e 573 610
e 577 598
e 578 607
e 578 679
e 579 582
e 580 674
e 581 598
e 583 631
e 590 645
e 594 622
e 599 676
e 604 670
e 621 650
e 622 671
e 626 669
e 635 649
e 639 655
e 645 670
e 649 666
